(set-logic QF_UF)
(declare-fun car () Bool)
(declare-fun circuit () Bool)
(declare-fun clk () Bool)
(declare-fun prt () Bool)
(assert (= (= (not (not prt)) prt) (= prt (not (not prt)))))
(assert (= (= prt (not (not prt))) true))
(assert (not (= (= (not (not prt)) prt) true)))
(check-sat)
(exit)
